\ This file has been generated by DOcplex
\ ENCODING=ISO-8859-1
\Problem name: random_problem.lp

Minimize
 obj: 402 x0 + 201 x1 + 110 x2 + 55 x3 + 230 x4 + 115 x5 + 1846 x6 + 923 x7
      + 318 x8 + 159 x9 + 720 x10 + 360 x11 + 370 x12 + 185 x13 + [ 6272 x0^2
      + 6272 x0*x1 + 1952 x0*x2 + 976 x0*x3 + 160 x0*x4 + 80 x0*x5 + 992 x0*x6
      + 496 x0*x7 + 352 x0*x8 + 176 x0*x9 + 2848 x0*x10 + 1424 x0*x11
      + 2560 x0*x12 + 1280 x0*x13 + 1568 x1^2 + 976 x1*x2 + 488 x1*x3 + 80 x1*x4
      + 40 x1*x5 + 496 x1*x6 + 248 x1*x7 + 176 x1*x8 + 88 x1*x9 + 1424 x1*x10
      + 712 x1*x11 + 1280 x1*x12 + 640 x1*x13 + 6224 x2^2 + 6224 x2*x3
      + 2240 x2*x4 + 1120 x2*x5 - 768 x2*x6 - 384 x2*x7 + 480 x2*x8 + 240 x2*x9
      + 512 x2*x10 + 256 x2*x11 + 736 x2*x12 + 368 x2*x13 + 1556 x3^2
      + 1120 x3*x4 + 560 x3*x5 - 384 x3*x6 - 192 x3*x7 + 240 x3*x8 + 120 x3*x9
      + 256 x3*x10 + 128 x3*x11 + 368 x3*x12 + 184 x3*x13 + 2496 x4^2
      + 2496 x4*x5 + 3456 x4*x6 + 1728 x4*x7 + 1184 x4*x8 + 592 x4*x9
      - 1248 x4*x10 - 624 x4*x11 - 576 x4*x12 - 288 x4*x13 + 624 x5^2
      + 1728 x5*x6 + 864 x5*x7 + 592 x5*x8 + 296 x5*x9 - 624 x5*x10 - 312 x5*x11
      - 288 x5*x12 - 144 x5*x13 + 5904 x6^2 + 5904 x6*x7 + 1280 x6*x8
      + 640 x6*x9 + 608 x6*x10 + 304 x6*x11 + 2048 x6*x12 + 1024 x6*x13
      + 1476 x7^2 + 640 x7*x8 + 320 x7*x9 + 304 x7*x10 + 152 x7*x11
      + 1024 x7*x12 + 512 x7*x13 + 1536 x8^2 + 1536 x8*x9 + 224 x8*x10
      + 112 x8*x11 - 1120 x8*x12 - 560 x8*x13 + 384 x9^2 + 112 x9*x10
      + 56 x9*x11 - 560 x9*x12 - 280 x9*x13 + 4944 x10^2 + 4944 x10*x11
      - 192 x10*x12 - 96 x10*x13 + 1236 x11^2 - 96 x11*x12 - 48 x11*x13
      + 3888 x12^2 + 3888 x12*x13 + 972 x13^2 ]/2
Subject To
 c0: 2 x0 + x1 + 2 x2 + x3 + 2 x4 + x5 + 2 x6 + x7 + 2 x8 + x9 + 2 x10 + x11
     + 2 x12 + x13 = 3

Bounds
 0 <= x0 <= 1
 0 <= x1 <= 1
 0 <= x2 <= 1
 0 <= x3 <= 1
 0 <= x4 <= 1
 0 <= x5 <= 1
 0 <= x6 <= 1
 0 <= x7 <= 1
 0 <= x8 <= 1
 0 <= x9 <= 1
 0 <= x10 <= 1
 0 <= x11 <= 1
 0 <= x12 <= 1
 0 <= x13 <= 1

Binaries
 x0 x1 x2 x3 x4 x5 x6 x7 x8 x9 x10 x11 x12 x13
End
